c description: Perfect Matching Principle on 
c generator: CNFgen (0.9.0)
c copyright: (C) 2012-2020 Massimo Lauria <massimo.lauria@uniroma1.it>
c url: https://massimolauria.net/cnfgen
c
p cnf 40 293
-1 -2 0
-1 -3 0
-1 -4 0
-1 -5 0
-1 -6 0
-1 -7 0
-2 -3 0
-2 -4 0
-2 -5 0
-2 -6 0
-2 -7 0
-3 -4 0
-3 -5 0
-3 -6 0
-3 -7 0
-4 -5 0
-4 -6 0
-4 -7 0
-5 -6 0
-5 -7 0
-6 -7 0
1 2 3 4 5 6 7 0
-1 -8 0
-1 -9 0
-1 -10 0
-1 -11 0
-1 -12 0
-1 -13 0
-1 -14 0
-8 -9 0
-8 -10 0
-8 -11 0
-8 -12 0
-8 -13 0
-8 -14 0
-9 -10 0
-9 -11 0
-9 -12 0
-9 -13 0
-9 -14 0
-10 -11 0
-10 -12 0
-10 -13 0
-10 -14 0
-11 -12 0
-11 -13 0
-11 -14 0
-12 -13 0
-12 -14 0
-13 -14 0
1 8 9 10 11 12 13 14 0
-2 -8 0
-2 -15 0
-2 -16 0
-2 -17 0
-2 -18 0
-2 -19 0
-2 -20 0
-2 -21 0
-8 -15 0
-8 -16 0
-8 -17 0
-8 -18 0
-8 -19 0
-8 -20 0
-8 -21 0
-15 -16 0
-15 -17 0
-15 -18 0
-15 -19 0
-15 -20 0
-15 -21 0
-16 -17 0
-16 -18 0
-16 -19 0
-16 -20 0
-16 -21 0
-17 -18 0
-17 -19 0
-17 -20 0
-17 -21 0
-18 -19 0
-18 -20 0
-18 -21 0
-19 -20 0
-19 -21 0
-20 -21 0
2 8 15 16 17 18 19 20 21 0
-3 -9 0
-3 -15 0
-3 -22 0
-3 -23 0
-3 -24 0
-3 -25 0
-9 -15 0
-9 -22 0
-9 -23 0
-9 -24 0
-9 -25 0
-15 -22 0
-15 -23 0
-15 -24 0
-15 -25 0
-22 -23 0
-22 -24 0
-22 -25 0
-23 -24 0
-23 -25 0
-24 -25 0
3 9 15 22 23 24 25 0
-4 -16 0
-4 -22 0
-4 -26 0
-4 -27 0
-4 -28 0
-4 -29 0
-4 -30 0
-16 -22 0
-16 -26 0
-16 -27 0
-16 -28 0
-16 -29 0
-16 -30 0
-22 -26 0
-22 -27 0
-22 -28 0
-22 -29 0
-22 -30 0
-26 -27 0
-26 -28 0
-26 -29 0
-26 -30 0
-27 -28 0
-27 -29 0
-27 -30 0
-28 -29 0
-28 -30 0
-29 -30 0
4 16 22 26 27 28 29 30 0
-10 -17 0
-10 -26 0
-10 -31 0
-10 -32 0
-10 -33 0
-10 -34 0
-17 -26 0
-17 -31 0
-17 -32 0
-17 -33 0
-17 -34 0
-26 -31 0
-26 -32 0
-26 -33 0
-26 -34 0
-31 -32 0
-31 -33 0
-31 -34 0
-32 -33 0
-32 -34 0
-33 -34 0
10 17 26 31 32 33 34 0
-5 -11 0
-5 -18 0
-5 -23 0
-5 -27 0
-5 -31 0
-5 -35 0
-5 -36 0
-5 -37 0
-11 -18 0
-11 -23 0
-11 -27 0
-11 -31 0
-11 -35 0
-11 -36 0
-11 -37 0
-18 -23 0
-18 -27 0
-18 -31 0
-18 -35 0
-18 -36 0
-18 -37 0
-23 -27 0
-23 -31 0
-23 -35 0
-23 -36 0
-23 -37 0
-27 -31 0
-27 -35 0
-27 -36 0
-27 -37 0
-31 -35 0
-31 -36 0
-31 -37 0
-35 -36 0
-35 -37 0
-36 -37 0
5 11 18 23 27 31 35 36 37 0
-6 -12 0
-6 -19 0
-6 -24 0
-6 -28 0
-6 -32 0
-6 -35 0
-6 -38 0
-6 -39 0
-12 -19 0
-12 -24 0
-12 -28 0
-12 -32 0
-12 -35 0
-12 -38 0
-12 -39 0
-19 -24 0
-19 -28 0
-19 -32 0
-19 -35 0
-19 -38 0
-19 -39 0
-24 -28 0
-24 -32 0
-24 -35 0
-24 -38 0
-24 -39 0
-28 -32 0
-28 -35 0
-28 -38 0
-28 -39 0
-32 -35 0
-32 -38 0
-32 -39 0
-35 -38 0
-35 -39 0
-38 -39 0
6 12 19 24 28 32 35 38 39 0
-7 -13 0
-7 -20 0
-7 -29 0
-7 -33 0
-7 -36 0
-7 -38 0
-7 -40 0
-13 -20 0
-13 -29 0
-13 -33 0
-13 -36 0
-13 -38 0
-13 -40 0
-20 -29 0
-20 -33 0
-20 -36 0
-20 -38 0
-20 -40 0
-29 -33 0
-29 -36 0
-29 -38 0
-29 -40 0
-33 -36 0
-33 -38 0
-33 -40 0
-36 -38 0
-36 -40 0
-38 -40 0
7 13 20 29 33 36 38 40 0
-14 -21 0
-14 -25 0
-14 -30 0
-14 -34 0
-14 -37 0
-14 -39 0
-14 -40 0
-21 -25 0
-21 -30 0
-21 -34 0
-21 -37 0
-21 -39 0
-21 -40 0
-25 -30 0
-25 -34 0
-25 -37 0
-25 -39 0
-25 -40 0
-30 -34 0
-30 -37 0
-30 -39 0
-30 -40 0
-34 -37 0
-34 -39 0
-34 -40 0
-37 -39 0
-37 -40 0
-39 -40 0
14 21 25 30 34 37 39 40 0